(benchmark test.smt
:logic QF_UFLIA
:extrafuns ((A Int Int Int))
:formula (and
(= (A 1 0) 1)
(= (A 2 0) 2)
(= (A 3 0) 3)
(= (A 4 0) 4)
(= (A 5 0) 5)
(= (A 6 0) 6)
(= (A 7 0) 7)
(and 
	(or 
		(= (A 1 1) (A 1 0))
	(and 
		(= (A 1 1) (A 2 0))
		(= (A 2 1) (A 2 0))
	)
	)
	(or 
		(= (A 2 1) (A 2 0))
	(and 
		(= (A 2 1) (+ (A 1 0) (A 3 0)))
		(= (A 1 1) (A 1 0))
		(= (A 3 1) (A 3 0))
	)
	)
	(or 
		(= (A 3 1) (A 3 0))
	(and 
		(= (A 3 1) (+ (A 2 0) (A 4 0)))
		(= (A 2 1) (A 2 0))
		(= (A 4 1) (A 4 0))
	)
	)
	(or 
		(= (A 4 1) (A 4 0))
	(and 
		(= (A 4 1) (+ (A 3 0) (A 5 0)))
		(= (A 3 1) (A 3 0))
		(= (A 5 1) (A 5 0))
	)
	)
	(or 
		(= (A 5 1) (A 5 0))
	(and 
		(= (A 5 1) (+ (A 4 0) (A 6 0)))
		(= (A 4 1) (A 4 0))
		(= (A 6 1) (A 6 0))
	)
	)
	(or 
		(= (A 6 1) (A 6 0))
	(and 
		(= (A 6 1) (+ (A 5 0) (A 7 0)))
		(= (A 5 1) (A 5 0))
		(= (A 7 1) (A 7 0))
	)
	)
	(or 
		(= (A 7 1) (A 7 0))
	(and 
		(= (A 7 1) (A 6 0))
		(= (A 6 1) (A 6 0))
	)
	)
)
(and 
	(or 
		(= (A 1 2) (A 1 1))
	(and 
		(= (A 1 2) (A 2 1))
		(= (A 2 2) (A 2 1))
	)
	)
	(or 
		(= (A 2 2) (A 2 1))
	(and 
		(= (A 2 2) (+ (A 1 1) (A 3 1)))
		(= (A 1 2) (A 1 1))
		(= (A 3 2) (A 3 1))
	)
	)
	(or 
		(= (A 3 2) (A 3 1))
	(and 
		(= (A 3 2) (+ (A 2 1) (A 4 1)))
		(= (A 2 2) (A 2 1))
		(= (A 4 2) (A 4 1))
	)
	)
	(or 
		(= (A 4 2) (A 4 1))
	(and 
		(= (A 4 2) (+ (A 3 1) (A 5 1)))
		(= (A 3 2) (A 3 1))
		(= (A 5 2) (A 5 1))
	)
	)
	(or 
		(= (A 5 2) (A 5 1))
	(and 
		(= (A 5 2) (+ (A 4 1) (A 6 1)))
		(= (A 4 2) (A 4 1))
		(= (A 6 2) (A 6 1))
	)
	)
	(or 
		(= (A 6 2) (A 6 1))
	(and 
		(= (A 6 2) (+ (A 5 1) (A 7 1)))
		(= (A 5 2) (A 5 1))
		(= (A 7 2) (A 7 1))
	)
	)
	(or 
		(= (A 7 2) (A 7 1))
	(and 
		(= (A 7 2) (A 6 1))
		(= (A 6 2) (A 6 1))
	)
	)
)
(and 
	(or 
		(= (A 1 3) (A 1 2))
	(and 
		(= (A 1 3) (A 2 2))
		(= (A 2 3) (A 2 2))
	)
	)
	(or 
		(= (A 2 3) (A 2 2))
	(and 
		(= (A 2 3) (+ (A 1 2) (A 3 2)))
		(= (A 1 3) (A 1 2))
		(= (A 3 3) (A 3 2))
	)
	)
	(or 
		(= (A 3 3) (A 3 2))
	(and 
		(= (A 3 3) (+ (A 2 2) (A 4 2)))
		(= (A 2 3) (A 2 2))
		(= (A 4 3) (A 4 2))
	)
	)
	(or 
		(= (A 4 3) (A 4 2))
	(and 
		(= (A 4 3) (+ (A 3 2) (A 5 2)))
		(= (A 3 3) (A 3 2))
		(= (A 5 3) (A 5 2))
	)
	)
	(or 
		(= (A 5 3) (A 5 2))
	(and 
		(= (A 5 3) (+ (A 4 2) (A 6 2)))
		(= (A 4 3) (A 4 2))
		(= (A 6 3) (A 6 2))
	)
	)
	(or 
		(= (A 6 3) (A 6 2))
	(and 
		(= (A 6 3) (+ (A 5 2) (A 7 2)))
		(= (A 5 3) (A 5 2))
		(= (A 7 3) (A 7 2))
	)
	)
	(or 
		(= (A 7 3) (A 7 2))
	(and 
		(= (A 7 3) (A 6 2))
		(= (A 6 3) (A 6 2))
	)
	)
)
(and 
	(or 
		(= (A 1 4) (A 1 3))
	(and 
		(= (A 1 4) (A 2 3))
		(= (A 2 4) (A 2 3))
	)
	)
	(or 
		(= (A 2 4) (A 2 3))
	(and 
		(= (A 2 4) (+ (A 1 3) (A 3 3)))
		(= (A 1 4) (A 1 3))
		(= (A 3 4) (A 3 3))
	)
	)
	(or 
		(= (A 3 4) (A 3 3))
	(and 
		(= (A 3 4) (+ (A 2 3) (A 4 3)))
		(= (A 2 4) (A 2 3))
		(= (A 4 4) (A 4 3))
	)
	)
	(or 
		(= (A 4 4) (A 4 3))
	(and 
		(= (A 4 4) (+ (A 3 3) (A 5 3)))
		(= (A 3 4) (A 3 3))
		(= (A 5 4) (A 5 3))
	)
	)
	(or 
		(= (A 5 4) (A 5 3))
	(and 
		(= (A 5 4) (+ (A 4 3) (A 6 3)))
		(= (A 4 4) (A 4 3))
		(= (A 6 4) (A 6 3))
	)
	)
	(or 
		(= (A 6 4) (A 6 3))
	(and 
		(= (A 6 4) (+ (A 5 3) (A 7 3)))
		(= (A 5 4) (A 5 3))
		(= (A 7 4) (A 7 3))
	)
	)
	(or 
		(= (A 7 4) (A 7 3))
	(and 
		(= (A 7 4) (A 6 3))
		(= (A 6 4) (A 6 3))
	)
	)
)
(and 
	(or 
		(= (A 1 5) (A 1 4))
	(and 
		(= (A 1 5) (A 2 4))
		(= (A 2 5) (A 2 4))
	)
	)
	(or 
		(= (A 2 5) (A 2 4))
	(and 
		(= (A 2 5) (+ (A 1 4) (A 3 4)))
		(= (A 1 5) (A 1 4))
		(= (A 3 5) (A 3 4))
	)
	)
	(or 
		(= (A 3 5) (A 3 4))
	(and 
		(= (A 3 5) (+ (A 2 4) (A 4 4)))
		(= (A 2 5) (A 2 4))
		(= (A 4 5) (A 4 4))
	)
	)
	(or 
		(= (A 4 5) (A 4 4))
	(and 
		(= (A 4 5) (+ (A 3 4) (A 5 4)))
		(= (A 3 5) (A 3 4))
		(= (A 5 5) (A 5 4))
	)
	)
	(or 
		(= (A 5 5) (A 5 4))
	(and 
		(= (A 5 5) (+ (A 4 4) (A 6 4)))
		(= (A 4 5) (A 4 4))
		(= (A 6 5) (A 6 4))
	)
	)
	(or 
		(= (A 6 5) (A 6 4))
	(and 
		(= (A 6 5) (+ (A 5 4) (A 7 4)))
		(= (A 5 5) (A 5 4))
		(= (A 7 5) (A 7 4))
	)
	)
	(or 
		(= (A 7 5) (A 7 4))
	(and 
		(= (A 7 5) (A 6 4))
		(= (A 6 5) (A 6 4))
	)
	)
)
(or 
	(and 
		(= (A 1 5) (A 2 5))
		(>= (A 1 5) 50)
		(>= (A 2 5) 50)
	)
	(and 
		(= (A 1 5) (A 3 5))
		(>= (A 1 5) 50)
		(>= (A 3 5) 50)
	)
	(and 
		(= (A 1 5) (A 4 5))
		(>= (A 1 5) 50)
		(>= (A 4 5) 50)
	)
	(and 
		(= (A 1 5) (A 5 5))
		(>= (A 1 5) 50)
		(>= (A 5 5) 50)
	)
	(and 
		(= (A 1 5) (A 6 5))
		(>= (A 1 5) 50)
		(>= (A 6 5) 50)
	)
	(and 
		(= (A 1 5) (A 7 5))
		(>= (A 1 5) 50)
		(>= (A 7 5) 50)
	)
	(and 
		(= (A 2 5) (A 3 5))
		(>= (A 2 5) 50)
		(>= (A 3 5) 50)
	)
	(and 
		(= (A 2 5) (A 4 5))
		(>= (A 2 5) 50)
		(>= (A 4 5) 50)
	)
	(and 
		(= (A 2 5) (A 5 5))
		(>= (A 2 5) 50)
		(>= (A 5 5) 50)
	)
	(and 
		(= (A 2 5) (A 6 5))
		(>= (A 2 5) 50)
		(>= (A 6 5) 50)
	)
	(and 
		(= (A 2 5) (A 7 5))
		(>= (A 2 5) 50)
		(>= (A 7 5) 50)
	)
	(and 
		(= (A 3 5) (A 4 5))
		(>= (A 3 5) 50)
		(>= (A 4 5) 50)
	)
	(and 
		(= (A 3 5) (A 5 5))
		(>= (A 3 5) 50)
		(>= (A 5 5) 50)
	)
	(and 
		(= (A 3 5) (A 6 5))
		(>= (A 3 5) 50)
		(>= (A 6 5) 50)
	)
	(and 
		(= (A 3 5) (A 7 5))
		(>= (A 3 5) 50)
		(>= (A 7 5) 50)
	)
	(and 
		(= (A 4 5) (A 5 5))
		(>= (A 4 5) 50)
		(>= (A 5 5) 50)
	)
	(and 
		(= (A 4 5) (A 6 5))
		(>= (A 4 5) 50)
		(>= (A 6 5) 50)
	)
	(and 
		(= (A 4 5) (A 7 5))
		(>= (A 4 5) 50)
		(>= (A 7 5) 50)
	)
	(and 
		(= (A 5 5) (A 6 5))
		(>= (A 5 5) 50)
		(>= (A 6 5) 50)
	)
	(and 
		(= (A 5 5) (A 7 5))
		(>= (A 5 5) 50)
		(>= (A 7 5) 50)
	)
	(and 
		(= (A 6 5) (A 7 5))
		(>= (A 6 5) 50)
		(>= (A 7 5) 50)
	)
)
))
